NAME : Giant_Problem.txt
COMMENT : 
TYPE : TSP
DIMENSION : 29
EDGE_WEIGHT_TYPE : EUC_2D
NODE_COORD_SECTION
1	218	382	
2	218	358
3	201	370
4	214	371
5	224	370
6	210	382
7	104	354
8	126	338
9	119	340
10	129	349
11	126	347
12	125	346
13	116	355
14	126	335
15	125	355
16	119	357
17	115	341
18	153	351
19	175	363
20	180	360
21	159	331
22	188	357
23	152	349
24	215	389
25	212	394
26	188	393
27	207	406
28	184	410
29	207	392
EOF
